sat
(:eliminated-vars              1
 :max-memory                   18.15
 :memory                       18.04
 :nlsat-conflicts              1
 :nlsat-irrational-assignments 2
 :nlsat-propagations           11
 :nlsat-stages                 8
 :num-allocs                   40533
 :rlimit-count                 2306
 :time                         0.00)
